c Generated map
c Size: 8 * 8, weights in range: 1 to 10, walls: True, with ratio 0.1
c dim 4 of 9
c
p sp 64 91
c graph contains 64 nodes and 91 arcs
c
a 1 9 2
a 9 1 2
a 1 2 7
a 2 1 7
a 2 3 10
a 3 2 10
a 3 11 9
a 11 3 9
a 3 4 6
a 4 3 6
a 4 12 6
a 12 4 6
a 4 5 7
a 5 4 7
a 5 13 5
a 13 5 5
a 5 6 3
a 6 5 3
a 6 14 6
a 14 6 6
a 6 7 9
a 7 6 9
a 7 15 6
a 15 7 6
a 7 8 1
a 8 7 1
a 8 16 3
a 16 8 3
a 11 12 5
a 12 11 5
a 12 20 4
a 20 12 4
a 12 13 1
a 13 12 1
a 13 21 2
a 21 13 2
a 13 14 10
a 14 13 10
a 14 22 3
a 22 14 3
a 14 15 3
a 15 14 3
a 15 23 7
a 23 15 7
a 15 16 6
a 16 15 6
a 16 24 8
a 24 16 8
a 18 26 5
a 26 18 5
a 20 28 6
a 28 20 6
a 20 21 4
a 21 20 4
a 21 29 2
a 29 21 2
a 21 22 9
a 22 21 9
a 22 30 6
a 30 22 6
a 22 23 3
a 23 22 3
a 23 31 5
a 31 23 5
a 23 24 5
a 24 23 5
a 25 33 4
a 33 25 4
a 25 26 3
a 26 25 3
a 26 34 5
a 34 26 5
a 26 27 1
a 27 26 1
a 27 28 4
a 28 27 4
a 28 36 3
a 36 28 3
a 28 29 1
a 29 28 1
a 29 37 10
a 37 29 10
a 29 30 7
a 30 29 7
a 30 38 9
a 38 30 9
a 30 31 2
a 31 30 2
a 31 39 8
a 39 31 8
a 33 34 2
a 34 33 2
a 34 42 5
a 42 34 5
a 36 44 9
a 44 36 9
a 36 37 4
a 37 36 4
a 37 45 7
a 45 37 7
a 37 38 2
a 38 37 2
a 38 46 4
a 46 38 4
a 38 39 5
a 39 38 5
a 39 47 8
a 47 39 8
a 39 40 1
a 40 39 1
a 40 48 2
a 48 40 2
a 42 50 8
a 50 42 8
a 42 43 3
a 43 42 3
a 43 51 1
a 51 43 1
a 43 44 7
a 44 43 7
a 44 52 4
a 52 44 4
a 44 45 10
a 45 44 10
a 45 53 10
a 53 45 10
a 45 46 4
a 46 45 4
a 46 54 6
a 54 46 6
a 46 47 2
a 47 46 2
a 47 55 10
a 55 47 10
a 47 48 3
a 48 47 3
a 48 56 1
a 56 48 1
a 49 57 4
a 57 49 4
a 49 50 1
a 50 49 1
a 50 58 2
a 58 50 2
a 50 51 5
a 51 50 5
a 51 59 6
a 59 51 6
a 51 52 1
a 52 51 1
a 52 60 5
a 60 52 5
a 52 53 7
a 53 52 7
a 53 61 2
a 61 53 2
a 53 54 3
a 54 53 3
a 54 62 4
a 62 54 4
a 54 55 10
a 55 54 10
a 55 63 2
a 63 55 2
a 55 56 9
a 56 55 9
a 56 64 9
a 64 56 9
a 57 58 9
a 58 57 9
a 58 59 8
a 59 58 8
a 59 60 4
a 60 59 4
a 60 61 7
a 61 60 7
a 61 62 3
a 62 61 3
a 62 63 6
a 63 62 6
a 63 64 6
a 64 63 6
